DATASET = "thpack2";
INSTANCE = "032";

WIDTH = 233;
HEIGHT = 220;
LENGTH = 587;

NO_OF_SHAPES = 5;
size = [|
  95,76,44 |
  81,47,34 |
  71,52,30 |
  96,52,28 |
  104,80,50 |
|];

verticality = [|
  0,1,1 |
  0,1,1 |
  0,1,1 |
  0,1,1 |
  0,1,1 |
|];

box_count = [
  31,
  30,
  29,
  31,
  21,
];
